Grasp exp. instance_n_20_m_10_id_2.lp tipoLifted 0 szPool 5 nIteration 20 alpha 0.6 
Academic license - for non-commercial use only
Read LP format model from file ../input/instancesGenerated/instance_n_20_m_10_id_2.lp
Reading time = 0.00 seconds
: 10 rows, 20 columns, 104 nonzeros
Optimize a model with 10 rows, 20 columns and 104 nonzeros
Variable types: 0 continuous, 20 integer (20 binary)
Coefficient statistics:
  Matrix range     [1e+00, 1e+01]
  Objective range  [1e+00, 1e+01]
  Bounds range     [1e+00, 1e+00]
  RHS range        [2e+01, 3e+01]
Found heuristic solution: objective 42.0000000

Explored 0 nodes (0 simplex iterations) in 0.00 seconds
Thread count was 1 (of 8 available processors)

Solution count 1: 42 
No other solutions better than 0

Solution limit reached
Best objective 4.200000000000e+01, best bound -, gap -
C_1:	 9.00 x_1  = 1.000000 + 8.00 x_2  = 0.000000 + 5.00 x_3  = 0.461994 + 5.00 x_7  = 0.000000 + 8.00 x_9  = 0.000000 + 2.00 x_10  = 0.891217 + 9.00 x_13  = 0.776061 + 3.00 x_15  = 0.245656 + 2.00 x_16  = 1.000000 + 7.00 x_18  = 0.499133 + 8.00 x_19  = 0.836518 <= 33.00
C_2:	 6.00 x_1  = 1.000000 + 8.00 x_2  = 0.000000 + 1.00 x_4  = 1.000000 + 10.00 x_5  = 0.199131 + 8.00 x_6  = 0.000000 + 5.00 x_8  = 1.000000 + 2.00 x_12  = 0.000000 + 2.00 x_13  = 0.776061 + 10.00 x_15  = 0.245656 + 10.00 x_16  = 1.000000 + 4.00 x_17  = 1.000000 + 2.00 x_20  = 1.000000 <= 34.00
C_3:	 3.00 x_1  = 1.000000 + 4.00 x_2  = 0.000000 + 3.00 x_3  = 0.461994 + 3.00 x_4  = 1.000000 + 4.00 x_5  = 0.199131 + 8.00 x_7  = 0.000000 + 10.00 x_8  = 1.000000 + 9.00 x_9  = 0.000000 + 1.00 x_10  = 0.891217 + 1.00 x_12  = 0.000000 + 1.00 x_14  = 1.000000 + 1.00 x_18  = 0.499133 + 5.00 x_20  = 1.000000 <= 26.00
C_4:	 6.00 x_4  = 1.000000 + 9.00 x_6  = 0.000000 + 6.00 x_7  = 0.000000 + 5.00 x_9  = 0.000000 + 1.00 x_10  = 0.891217 + 10.00 x_12  = 0.000000 + 8.00 x_15  = 0.245656 + 8.00 x_19  = 0.836518 <= 26.00
C_5:	 6.00 x_6  = 0.000000 + 10.00 x_7  = 0.000000 + 7.00 x_11  = 1.000000 + 6.00 x_14  = 1.000000 + 4.00 x_15  = 0.245656 + 2.00 x_18  = 0.499133 + 6.00 x_19  = 0.836518 <= 20.00
C_6:	 7.00 x_3  = 0.461994 + 1.00 x_5  = 0.199131 + 8.00 x_6  = 0.000000 + 2.00 x_7  = 0.000000 + 3.00 x_9  = 0.000000 + 6.00 x_10  = 0.891217 + 4.00 x_14  = 1.000000 + 5.00 x_15  = 0.245656 + 8.00 x_16  = 1.000000 + 10.00 x_18  = 0.499133 <= 27.00
C_7:	 6.00 x_1  = 1.000000 + 4.00 x_3  = 0.461994 + 9.00 x_4  = 1.000000 + 6.00 x_6  = 0.000000 + 10.00 x_7  = 0.000000 + 4.00 x_9  = 0.000000 + 5.00 x_12  = 0.000000 + 7.00 x_13  = 0.776061 + 6.00 x_14  = 1.000000 + 7.00 x_15  = 0.245656 + 2.00 x_16  = 1.000000 + 2.00 x_20  = 1.000000 <= 34.00
C_8:	 4.00 x_1  = 1.000000 + 8.00 x_2  = 0.000000 + 2.00 x_4  = 1.000000 + 8.00 x_6  = 0.000000 + 8.00 x_7  = 0.000000 + 9.00 x_9  = 0.000000 + 1.00 x_10  = 0.891217 + 2.00 x_15  = 0.245656 + 6.00 x_17  = 1.000000 + 5.00 x_18  = 0.499133 + 10.00 x_19  = 0.836518 <= 31.00
C_9:	 3.00 x_1  = 1.000000 + 3.00 x_4  = 1.000000 + 10.00 x_5  = 0.199131 + 4.00 x_6  = 0.000000 + 6.00 x_7  = 0.000000 + 1.00 x_8  = 1.000000 + 1.00 x_11  = 1.000000 + 10.00 x_12  = 0.000000 + 2.00 x_14  = 1.000000 + 7.00 x_16  = 1.000000 + 1.00 x_18  = 0.499133 + 3.00 x_19  = 0.836518 + 6.00 x_20  = 1.000000 <= 28.00
C_10:	 3.00 x_5  = 0.199131 + 7.00 x_8  = 1.000000 + 7.00 x_9  = 0.000000 + 4.00 x_10  = 0.891217 + 6.00 x_12  = 0.000000 + 3.00 x_13  = 0.776061 + 3.00 x_19  = 0.836518 <= 16.00
Solution initial: 73.848370 
Number Constraints Used in Cover:10
GRASP Method!
Number cuts repeat: 0
value: 73.848370
Number Constraints Used in Cover:18
GRASP Method!
Number cuts repeat: 0
value: 73.848370
Number Constraints Used in Cover:22
GRASP Method!
Number cuts repeat: 0
value: 73.848055
Number Constraints Used in Cover:30
GRASP Method!
Number cuts repeat: 0
value: 73.848055
Number Constraints Used in Cover:35
GRASP Method!
Number cuts repeat: 0
value: 73.848055
Number Constraints Used in Cover:41
GRASP Method!
Number cuts repeat: 0
value: 73.848055
Number Constraints Used in Cover:55
GRASP Method!
Number cuts repeat: 0
value: 73.848055
Number Constraints Used in Cover:64
GRASP Method!
Number cuts repeat: 0
value: 73.848055
Number Constraints Used in Cover:75
GRASP Method!
Number cuts repeat: 0
value: 73.848055
Number Constraints Used in Cover:83
GRASP Method!
Number cuts repeat: 0
value: 73.848055
Number Constraints Used in Cover:88
GRASP Method!
Number cuts repeat: 0
value: 73.848055
Number Constraints Used in Cover:95
GRASP Method!
Number cuts repeat: 0
value: 73.848055
Number Constraints Used in Cover:101
GRASP Method!
Number cuts repeat: 0
value: 73.848055
Number Constraints Used in Cover:104
GRASP Method!
Number cuts repeat: 0
value: 73.848055
Number Constraints Used in Cover:111
GRASP Method!
Number cuts repeat: 0
value: 73.848055
Number Constraints Used in Cover:117
GRASP Method!
Number cuts repeat: 0
value: 73.848055
Number Constraints Used in Cover:125
GRASP Method!
Number cuts repeat: 0
value: 73.848055
Number Constraints Used in Cover:129
GRASP Method!
Number cuts repeat: 0
value: 73.848055
Number Constraints Used in Cover:138
GRASP Method!
Number cuts repeat: 0
value: 73.848055
Number Constraints Used in Cover:147
GRASP Method!
Number cuts repeat: 0
value: 73.848055
Number Constraints Used in Cover:163
GRASP Method!
Number cuts repeat: 0
value: 73.848055
Number Constraints Used in Cover:177
GRASP Method!
Number cuts repeat: 0
value: 73.848055
Number Constraints Used in Cover:188
GRASP Method!
Number cuts repeat: 0
value: 73.848055
Number Constraints Used in Cover:197
GRASP Method!
Number cuts repeat: 0
value: 73.848055
Number Constraints Used in Cover:210
GRASP Method!
Number cuts repeat: 0
value: 73.848055
Number Constraints Used in Cover:222
GRASP Method!
Number cuts repeat: 0
value: 73.848055
Number Constraints Used in Cover:242
GRASP Method!
Number cuts repeat: 0
value: 73.848055
Number Constraints Used in Cover:271
GRASP Method!
Number cuts repeat: 0
value: 73.848055
Number Constraints Used in Cover:292
GRASP Method!
Number cuts repeat: 0
value: 73.848055
Number Constraints Used in Cover:313
GRASP Method!
Number cuts repeat: 0
value: 73.848055
Number Constraints Used in Cover:335
GRASP Method!
Number cuts repeat: 0
value: 73.848055
Number Constraints Used in Cover:357
GRASP Method!
Number cuts repeat: 0
value: 73.848055
Number Constraints Used in Cover:375
GRASP Method!
Number cuts repeat: 0
value: 73.848055
Number Constraints Used in Cover:384
GRASP Method!
Number cuts repeat: 0
value: 73.848055
Number Constraints Used in Cover:395
GRASP Method!
Number cuts repeat: 0
value: 73.848055
Number Constraints Used in Cover:401
GRASP Method!
Number cuts repeat: 0
value: 73.848055
Number Constraints Used in Cover:405
GRASP Method!
Number cuts repeat: 0
value: 73.848055
Number Constraints Used in Cover:415
GRASP Method!
Number cuts repeat: 0
value: 73.848055
Number Constraints Used in Cover:434
GRASP Method!
Number cuts repeat: 0
value: 73.848055
Number Constraints Used in Cover:441
GRASP Method!
Number cuts repeat: 0
value: 73.848055
Number Constraints Used in Cover:454
GRASP Method!
Number cuts repeat: 0
value: 73.848055
Number Constraints Used in Cover:465
GRASP Method!
Number cuts repeat: 0
value: 73.848055
Number Constraints Used in Cover:477
GRASP Method!
Number cuts repeat: 0
value: 73.848055
Number Constraints Used in Cover:488
GRASP Method!
Number cuts repeat: 0
value: 73.848055
Number Constraints Used in Cover:494
GRASP Method!
Number cuts repeat: 0
value: 73.848055
Number Constraints Used in Cover:506
GRASP Method!
Number cuts repeat: 0
value: 73.848055
Number Constraints Used in Cover:517
GRASP Method!
Number cuts repeat: 0
value: 73.848055
Number Constraints Used in Cover:534
GRASP Method!
Number cuts repeat: 0
value: 73.848055
Number Constraints Used in Cover:546
GRASP Method!
Number cuts repeat: 0
value: 73.848055
Number Constraints Used in Cover:556
GRASP Method!
Number cuts repeat: 0
value: 73.848055
Number Constraints Used in Cover:568
GRASP Method!
Number cuts repeat: 0
value: 73.848055
Number Constraints Used in Cover:578
GRASP Method!
Number cuts repeat: 0
value: 73.848055
Number Constraints Used in Cover:592
GRASP Method!
Number cuts repeat: 0
value: 73.848055
Number Constraints Used in Cover:601
GRASP Method!
Number cuts repeat: 0
value: 73.848055
Number Constraints Used in Cover:614
GRASP Method!
Number cuts repeat: 0
value: 73.848055
Number Constraints Used in Cover:623
GRASP Method!
Number cuts repeat: 0
value: 73.848055
Number Constraints Used in Cover:632
GRASP Method!
Number cuts repeat: 0
value: 73.848055
Number Constraints Used in Cover:634
GRASP Method!
Number cuts repeat: 0
value: 73.848055
Number Constraints Used in Cover:639
GRASP Method!
Number cuts repeat: 0
value: 73.848055
Number Constraints Used in Cover:654
GRASP Method!
Number cuts repeat: 0
value: 73.848055
Number Constraints Used in Cover:666
GRASP Method!
Number cuts repeat: 0
value: 73.848055
Number Constraints Used in Cover:678
GRASP Method!
Number cuts repeat: 0
value: 73.848055
Number Constraints Used in Cover:689
GRASP Method!
Number cuts repeat: 0
value: 73.848055
Number Constraints Used in Cover:690
GRASP Method!
Number cuts repeat: 0
value: 73.848055
Number Constraints Used in Cover:693
GRASP Method!
Number cuts repeat: 0
value: 73.848055
Number Constraints Used in Cover:700
GRASP Method!
Number cuts repeat: 0
value: 73.848055
Number Constraints Used in Cover:700
GRASP Method!
Number cuts repeat: 0
value: 73.848055
Number Constraints Used in Cover:701
GRASP Method!
Number cuts repeat: 0
value: 73.848055
Number Constraints Used in Cover:707
GRASP Method!
Number cuts repeat: 0
value: 73.848055
Number Constraints Used in Cover:712
GRASP Method!
Number cuts repeat: 0
value: 73.848055
Number Constraints Used in Cover:720
GRASP Method!
Number cuts repeat: 0
value: 73.848055
Number Constraints Used in Cover:727
GRASP Method!
Number cuts repeat: 0
value: 73.848055
Number Constraints Used in Cover:732
GRASP Method!
Number cuts repeat: 0
value: 73.848055
Number Constraints Used in Cover:742
GRASP Method!
Number cuts repeat: 0
value: 73.848055
Number Constraints Used in Cover:746
GRASP Method!
Number cuts repeat: 0
value: 73.848055
Number Constraints Used in Cover:756
GRASP Method!
Number cuts repeat: 0
value: 73.848055
Number Constraints Used in Cover:760
GRASP Method!
Number cuts repeat: 0
value: 73.848055
Number Constraints Used in Cover:766
GRASP Method!
Number cuts repeat: 0
value: 73.848055
Number Constraints Used in Cover:773
GRASP Method!
Number cuts repeat: 0
value: 73.848055
Number Constraints Used in Cover:779
GRASP Method!
Number cuts repeat: 0
value: 73.848055
Number Constraints Used in Cover:781
GRASP Method!
Number cuts repeat: 0
value: 73.848055
Number Constraints Used in Cover:785
GRASP Method!
Number cuts repeat: 0
value: 73.848055
Number Constraints Used in Cover:787
GRASP Method!
Number cuts repeat: 0
value: 73.848055
Number Constraints Used in Cover:792
GRASP Method!
Number cuts repeat: 0
value: 73.848055
Number Constraints Used in Cover:796
GRASP Method!
Number cuts repeat: 0
value: 73.848055
Number Constraints Used in Cover:802
GRASP Method!
Number cuts repeat: 0
value: 73.848055
Number Constraints Used in Cover:806
GRASP Method!
Number cuts repeat: 0
value: 73.848055
Number Constraints Used in Cover:813
GRASP Method!
Number cuts repeat: 0
value: 73.848055
Number Constraints Used in Cover:821
GRASP Method!
Number cuts repeat: 0
value: 73.848055
Number Constraints Used in Cover:827
GRASP Method!
Number cuts repeat: 0
value: 73.848055
Number Constraints Used in Cover:839
GRASP Method!
Number cuts repeat: 0
value: 73.848055
Number Cuts Final: 832
